* ENCODING=ISO-8859-1
NAME          CPLEX
ROWS
 N  obj1    
 G  c1      
 G  c2      
 G  c3      
 G  c4      
 G  c5      
 G  c6      
 G  c7      
 G  c8      
 G  c9      
 G  c10     
 G  c11     
 G  c12     
 G  c13     
 G  c14     
 G  c15     
 G  c16     
 G  c17     
 G  c18     
 G  c19     
 G  c20     
 G  c21     
 G  c22     
 G  c23     
 G  c24     
 G  c25     
 G  c26     
 G  c27     
 G  c28     
 G  c29     
 G  c30     
 G  c31     
 G  c32     
 G  c33     
 G  c34     
 G  c35     
COLUMNS
    MARK0000  'MARKER'                 'INTORG'
    x1        obj1                            1
    x1        c12                           156
    x1        c14                           796
    x1        c28                           803
    x1        c30                           438
    x2        obj1                            1
    x2        c24                           920
    x2        c31                           633
    x3        obj1                            1
    x3        c3                            205
    x3        c5                            792
    x3        c16                           713
    x3        c20                           909
    x3        c21                           961
    x3        c33                           406
    x4        obj1                            1
    x4        c31                           289
    x5        obj1                            1
    x5        c6                            566
    x5        c22                           443
    x5        c27                           674
    x6        obj1                            1
    x6        c15                           882
    x6        c18                           375
    x6        c19                           268
    x6        c23                           161
    x6        c30                           770
    x7        obj1                            1
    x7        c1                            425
    x7        c8                            624
    x7        c19                           767
    x7        c22                           617
    x7        c24                           490
    x8        obj1                            1
    x8        c3                            856
    x8        c10                           388
    x8        c28                           296
    x8        c32                           989
    x8        c33                           270
    x9        obj1                            1
    x9        c5                            939
    x9        c12                           637
    x9        c13                           109
    x9        c16                           626
    x9        c18                           747
    x9        c27                           940
    x10       obj1                            1
    x10       c2                            245
    x10       c7                            119
    x10       c26                           201
    x10       c32                           791
    x10       c34                           346
    x11       obj1                            1
    x11       c8                            390
    x11       c10                           745
    x11       c19                           634
    x11       c22                           673
    x11       c32                           950
    x12       obj1                            1
    x12       c2                            977
    x12       c4                            874
    x12       c13                           337
    x13       obj1                            1
    x13       c30                           369
    x13       c35                           397
    x14       obj1                            1
    x14       c2                            216
    x14       c9                            776
    x14       c34                           816
    x15       obj1                            1
    x15       c7                            703
    x15       c25                           902
    x15       c27                           335
    x16       obj1                            1
    x16       c15                           217
    x16       c16                           346
    x16       c17                           611
    x17       obj1                            1
    x17       c4                            285
    x17       c15                           329
    x17       c21                           198
    x18       obj1                            1
    x18       c1                            322
    x18       c21                           592
    x19       obj1                            1
    x19       c15                           487
    x19       c17                           326
    x19       c20                           845
    x20       obj1                            1
    x20       c17                           407
    x20       c20                           574
    x20       c22                           846
    x20       c27                           503
    x20       c29                           349
    x20       c31                           711
    x21       obj1                            1
    x21       c9                            268
    x22       obj1                            1
    x22       c22                           979
    x22       c28                           383
    x22       c30                           457
    x23       obj1                            1
    x23       c4                            334
    x23       c7                            212
    x23       c18                           140
    x23       c23                           856
    x24       obj1                            1
    x24       c3                            542
    x24       c11                           554
    x24       c14                           161
    x25       obj1                            1
    x25       c7                            736
    x25       c14                           282
    x25       c30                           957
    x26       obj1                            1
    x26       c24                           375
    x26       c28                           264
    x26       c35                           184
    x27       obj1                            1
    x27       c6                            740
    x27       c16                           708
    x27       c19                           194
    x27       c31                           564
    x27       c32                           803
    x27       c35                           831
    x28       obj1                            1
    x28       c22                           130
    x28       c29                           835
    x29       obj1                            1
    x29       c2                            613
    x29       c6                            528
    x29       c16                           138
    x29       c28                           748
    x29       c30                           408
    x30       obj1                            1
    x30       c14                           549
    x30       c25                           709
    x30       c35                           479
    x31       obj1                            1
    x31       c5                            841
    x31       c13                           731
    x31       c22                           603
    x31       c27                           914
    x31       c28                           528
    x31       c31                           259
    x31       c33                           121
    x32       obj1                            1
    x32       c6                            806
    x32       c7                            626
    x32       c14                           187
    x33       obj1                            1
    x33       c6                            399
    x33       c10                           299
    x33       c24                           828
    x34       obj1                            1
    x34       c9                            864
    x34       c12                           318
    x34       c29                           140
    x35       obj1                            1
    x35       c21                           277
    x35       c32                           388
    x36       obj1                            1
    x36       c18                           326
    x36       c23                           555
    x36       c26                           723
    x37       obj1                            1
    x37       c10                           918
    x37       c11                           286
    x37       c22                           829
    x37       c26                           364
    x38       obj1                            1
    x38       c7                            117
    x38       c12                           375
    x38       c29                           645
    x39       obj1                            1
    x39       c2                            837
    x39       c8                            705
    x39       c10                           909
    x39       c23                           723
    x39       c35                           399
    x40       obj1                            1
    x40       c9                            785
    x40       c16                           329
    x40       c32                           467
    x41       obj1                            1
    x41       c3                            163
    x41       c8                            747
    x41       c9                            857
    x41       c11                           566
    x41       c19                           970
    x41       c21                           130
    x41       c23                           314
    x41       c35                           386
    x42       obj1                            1
    x42       c1                            321
    x42       c4                            346
    x42       c9                            819
    x42       c11                           389
    x42       c18                           546
    x42       c19                           552
    x42       c30                           522
    x42       c34                           694
    x43       obj1                            1
    x43       c3                            533
    x43       c9                            770
    x43       c10                           229
    x43       c15                           534
    x43       c24                           702
    x43       c26                           893
    x43       c27                           547
    x43       c31                           177
    x44       obj1                            1
    x44       c2                            311
    x44       c6                            183
    x44       c20                           865
    x44       c26                           921
    x44       c29                           726
    x45       obj1                            1
    x45       c6                            981
    x45       c21                           445
    x45       c29                           354
    x46       obj1                            1
    x46       c3                            906
    x46       c14                           234
    x46       c33                           350
    x47       obj1                            1
    x47       c10                           100
    x48       obj1                            1
    x48       c7                            483
    x48       c23                           962
    x48       c34                           931
    x49       obj1                            1
    x49       c10                           296
    x49       c14                           558
    x49       c30                           160
    x49       c35                           156
    x50       obj1                            1
    x50       c11                           852
    x50       c27                           765
    x51       obj1                            1
    x51       c11                           223
    x51       c14                           247
    x51       c19                           929
    x52       obj1                            1
    x52       c32                           978
    x52       c33                           526
    x53       obj1                            1
    x53       c10                           591
    x53       c16                           359
    x53       c32                           366
    x53       c33                           168
    x54       obj1                            1
    x54       c3                            871
    x54       c9                            767
    x54       c10                           678
    x54       c18                           146
    x54       c24                           921
    x54       c28                           919
    x54       c30                           847
    x54       c32                           692
    x55       obj1                            1
    x55       c25                           886
    x56       obj1                            1
    x56       c2                            690
    x56       c12                           394
    x56       c16                           143
    x56       c23                           906
    x57       obj1                            1
    x57       c19                           306
    x58       obj1                            1
    x58       c8                            409
    x58       c19                           340
    x59       obj1                            1
    x59       c6                            503
    x59       c17                           906
    x59       c29                           810
    x59       c35                           672
    x60       obj1                            1
    x60       c16                           533
    x60       c18                           302
    x60       c22                           117
    x60       c27                           793
    x60       c34                           830
    x61       obj1                            1
    x61       c7                            442
    x61       c18                           419
    x61       c22                           405
    x61       c28                           273
    x61       c30                           109
    x62       obj1                            1
    x62       c2                            469
    x62       c23                           160
    x62       c29                           351
    x63       obj1                            1
    x63       c13                           929
    x63       c25                           656
    x64       obj1                            1
    x64       c12                           726
    x65       obj1                            1
    x66       obj1                            1
    x66       c7                            672
    x66       c21                           610
    x66       c34                           582
    x67       obj1                            1
    x67       c1                            366
    x67       c20                           732
    x67       c21                           645
    x67       c23                           713
    x67       c28                           117
    x67       c35                           991
    x68       obj1                            1
    x68       c5                            984
    x68       c9                            473
    x68       c14                           403
    x69       obj1                            1
    x69       c3                            788
    x69       c5                            429
    x69       c6                            813
    x69       c21                           985
    x70       obj1                            1
    x70       c3                            287
    MARK0001  'MARKER'                 'INTEND'
RHS
    rhs       c1                            717
    rhs       c2                           2179
    rhs       c3                           2576
    rhs       c4                            920
    rhs       c5                           1993
    rhs       c6                           2760
    rhs       c7                           2055
    rhs       c8                           1438
    rhs       c9                           3190
    rhs       c10                          2577
    rhs       c11                          1435
    rhs       c12                          1303
    rhs       c13                          1053
    rhs       c14                          1709
    rhs       c15                          1225
    rhs       c16                          1948
    rhs       c17                          1125
    rhs       c18                          1501
    rhs       c19                          2480
    rhs       c20                          1963
    rhs       c21                          2422
    rhs       c22                          2821
    rhs       c23                          2675
    rhs       c24                          2118
    rhs       c25                          1577
    rhs       c26                          1551
    rhs       c27                          2736
    rhs       c28                          2166
    rhs       c29                          2105
    rhs       c30                          2519
    rhs       c31                          1317
    rhs       c32                          3212
    rhs       c33                           921
    rhs       c34                          2100
    rhs       c35                          2248
BOUNDS
 LI bnd       x1        0
 LI bnd       x2        0
 LI bnd       x3        0
 LI bnd       x4        0
 LI bnd       x5        0
 LI bnd       x6        0
 LI bnd       x7        0
 LI bnd       x8        0
 LI bnd       x9        0
 LI bnd       x10       0
 LI bnd       x11       0
 LI bnd       x12       0
 LI bnd       x13       0
 LI bnd       x14       0
 LI bnd       x15       0
 LI bnd       x16       0
 LI bnd       x17       0
 LI bnd       x18       0
 LI bnd       x19       0
 LI bnd       x20       0
 LI bnd       x21       0
 LI bnd       x22       0
 LI bnd       x23       0
 LI bnd       x24       0
 LI bnd       x25       0
 LI bnd       x26       0
 LI bnd       x27       0
 LI bnd       x28       0
 LI bnd       x29       0
 LI bnd       x30       0
 LI bnd       x31       0
 LI bnd       x32       0
 LI bnd       x33       0
 LI bnd       x34       0
 LI bnd       x35       0
 LI bnd       x36       0
 LI bnd       x37       0
 LI bnd       x38       0
 LI bnd       x39       0
 LI bnd       x40       0
 LI bnd       x41       0
 LI bnd       x42       0
 LI bnd       x43       0
 LI bnd       x44       0
 LI bnd       x45       0
 LI bnd       x46       0
 LI bnd       x47       0
 LI bnd       x48       0
 LI bnd       x49       0
 LI bnd       x50       0
 LI bnd       x51       0
 LI bnd       x52       0
 LI bnd       x53       0
 LI bnd       x54       0
 LI bnd       x55       0
 LI bnd       x56       0
 LI bnd       x57       0
 LI bnd       x58       0
 LI bnd       x59       0
 LI bnd       x60       0
 LI bnd       x61       0
 LI bnd       x62       0
 LI bnd       x63       0
 LI bnd       x64       0
 LI bnd       x65       0
 LI bnd       x66       0
 LI bnd       x67       0
 LI bnd       x68       0
 LI bnd       x69       0
 LI bnd       x70       0
ENDATA
